p edge 20 140
e 1 3
e 1 14
e 1 16
e 1 16
e 1 17
e 1 19
e 1 19
e 2 6
e 2 8
e 2 9
e 2 15
e 2 18
e 2 18
e 2 19
e 3 2
e 3 7
e 3 8
e 3 15
e 3 15
e 3 16
e 3 17
e 4 9
e 4 9
e 4 11
e 4 13
e 4 14
e 4 15
e 4 19
e 5 2
e 5 3
e 5 8
e 5 8
e 5 9
e 5 9
e 5 13
e 6 3
e 6 5
e 6 9
e 6 10
e 6 13
e 6 18
e 6 20
e 7 2
e 7 5
e 7 6
e 7 6
e 7 16
e 7 17
e 7 18
e 8 3
e 8 4
e 8 9
e 8 12
e 8 12
e 8 14
e 8 18
e 9 1
e 9 3
e 9 4
e 9 4
e 9 11
e 9 11
e 9 16
e 10 2
e 10 3
e 10 12
e 10 12
e 10 14
e 10 16
e 10 17
e 11 5
e 11 7
e 11 7
e 11 7
e 11 7
e 11 18
e 11 20
e 12 1
e 12 7
e 12 7
e 12 9
e 12 11
e 12 14
e 12 18
e 13 4
e 13 6
e 13 6
e 13 12
e 13 14
e 13 17
e 13 19
e 14 7
e 14 8
e 14 9
e 14 10
e 14 19
e 14 19
e 14 19
e 15 1
e 15 2
e 15 3
e 15 4
e 15 8
e 15 16
e 15 17
e 16 1
e 16 2
e 16 4
e 16 4
e 16 10
e 16 12
e 16 15
e 17 1
e 17 7
e 17 8
e 17 10
e 17 13
e 17 13
e 17 15
e 18 4
e 18 5
e 18 7
e 18 9
e 18 11
e 18 15
e 18 19
e 19 2
e 19 3
e 19 5
e 19 6
e 19 11
e 19 12
e 19 16
e 20 3
e 20 4
e 20 8
e 20 9
e 20 14
e 20 15
e 20 16
